c CNF file corresponding to a (partial) station packing problem.
p cnf 3012 229
1 2 3 4 5 6 7 8 9 10 11 12 13 14 0
-1 -2 0
-1 -3 0
-1 -4 0
-1 -5 0
-1 -6 0
-1 -7 0
-1 -8 0
-1 -9 0
-1 -10 0
-1 -11 0
-1 -12 0
-1 -13 0
-1 -14 0
-2 -3 0
-2 -4 0
-2 -5 0
-2 -6 0
-2 -7 0
-2 -8 0
-2 -9 0
-2 -10 0
-2 -11 0
-2 -12 0
-2 -13 0
-2 -14 0
-3 -4 0
-3 -5 0
-3 -6 0
-3 -7 0
-3 -8 0
-3 -9 0
-3 -10 0
-3 -11 0
-3 -12 0
-3 -13 0
-3 -14 0
-4 -5 0
-4 -6 0
-4 -7 0
-4 -8 0
-4 -9 0
-4 -10 0
-4 -11 0
-4 -12 0
-4 -13 0
-4 -14 0
-5 -6 0
-5 -7 0
-5 -8 0
-5 -9 0
-5 -10 0
-5 -11 0
-5 -12 0
-5 -13 0
-5 -14 0
-6 -7 0
-6 -8 0
-6 -9 0
-6 -10 0
-6 -11 0
-6 -12 0
-6 -13 0
-6 -14 0
-7 -8 0
-7 -9 0
-7 -10 0
-7 -11 0
-7 -12 0
-7 -13 0
-7 -14 0
-8 -9 0
-8 -10 0
-8 -11 0
-8 -12 0
-8 -13 0
-8 -14 0
-9 -10 0
-9 -11 0
-9 -12 0
-9 -13 0
-9 -14 0
-10 -11 0
-10 -12 0
-10 -13 0
-10 -14 0
-11 -12 0
-11 -13 0
-11 -14 0
-12 -13 0
-12 -14 0
-13 -14 0
2996 2997 2998 2999 3000 3001 3002 3003 3004 3005 3006 3007 3008 3009 3010 3011 3012 0
-2996 -2997 0
-2996 -2998 0
-2996 -2999 0
-2996 -3000 0
-2996 -3001 0
-2996 -3002 0
-2996 -3003 0
-2996 -3004 0
-2996 -3005 0
-2996 -3006 0
-2996 -3007 0
-2996 -3008 0
-2996 -3009 0
-2996 -3010 0
-2996 -3011 0
-2996 -3012 0
-2997 -2998 0
-2997 -2999 0
-2997 -3000 0
-2997 -3001 0
-2997 -3002 0
-2997 -3003 0
-2997 -3004 0
-2997 -3005 0
-2997 -3006 0
-2997 -3007 0
-2997 -3008 0
-2997 -3009 0
-2997 -3010 0
-2997 -3011 0
-2997 -3012 0
-2998 -2999 0
-2998 -3000 0
-2998 -3001 0
-2998 -3002 0
-2998 -3003 0
-2998 -3004 0
-2998 -3005 0
-2998 -3006 0
-2998 -3007 0
-2998 -3008 0
-2998 -3009 0
-2998 -3010 0
-2998 -3011 0
-2998 -3012 0
-2999 -3000 0
-2999 -3001 0
-2999 -3002 0
-2999 -3003 0
-2999 -3004 0
-2999 -3005 0
-2999 -3006 0
-2999 -3007 0
-2999 -3008 0
-2999 -3009 0
-2999 -3010 0
-2999 -3011 0
-2999 -3012 0
-3000 -3001 0
-3000 -3002 0
-3000 -3003 0
-3000 -3004 0
-3000 -3005 0
-3000 -3006 0
-3000 -3007 0
-3000 -3008 0
-3000 -3009 0
-3000 -3010 0
-3000 -3011 0
-3000 -3012 0
-3001 -3002 0
-3001 -3003 0
-3001 -3004 0
-3001 -3005 0
-3001 -3006 0
-3001 -3007 0
-3001 -3008 0
-3001 -3009 0
-3001 -3010 0
-3001 -3011 0
-3001 -3012 0
-3002 -3003 0
-3002 -3004 0
-3002 -3005 0
-3002 -3006 0
-3002 -3007 0
-3002 -3008 0
-3002 -3009 0
-3002 -3010 0
-3002 -3011 0
-3002 -3012 0
-3003 -3004 0
-3003 -3005 0
-3003 -3006 0
-3003 -3007 0
-3003 -3008 0
-3003 -3009 0
-3003 -3010 0
-3003 -3011 0
-3003 -3012 0
-3004 -3005 0
-3004 -3006 0
-3004 -3007 0
-3004 -3008 0
-3004 -3009 0
-3004 -3010 0
-3004 -3011 0
-3004 -3012 0
-3005 -3006 0
-3005 -3007 0
-3005 -3008 0
-3005 -3009 0
-3005 -3010 0
-3005 -3011 0
-3005 -3012 0
-3006 -3007 0
-3006 -3008 0
-3006 -3009 0
-3006 -3010 0
-3006 -3011 0
-3006 -3012 0
-3007 -3008 0
-3007 -3009 0
-3007 -3010 0
-3007 -3011 0
-3007 -3012 0
-3008 -3009 0
-3008 -3010 0
-3008 -3011 0
-3008 -3012 0
-3009 -3010 0
-3009 -3011 0
-3009 -3012 0
-3010 -3011 0
-3010 -3012 0
-3011 -3012 0
